language ESSENCE' 1.0
letting nrows be 2
letting ncols be 4

letting nrobots be 2
letting robot_pos be [[1, 2],
                      [2, 1]]

letting ntasks be 2
letting task_obj  be [1, 2]
letting task_dest be [[2, 4],
                      [2, 3]]

letting time_limit be 4

letting map be [[ -1, 2, -1, -1],
                [  1, 0,  0,  0]]
